 param n:=7;
 param me:=1;
 param mg:=8;
 param ml:=1;
 param c :=
 1 3
 2 2
 3 2
 4 1
 5 3
 6 3
 7 1;
 param be :=
 1 5;
 param bg :=
 1 10
 2 10
 3 10
 4 4
 5 2
 6 1
 7 0
 8 1;
 param bl :=
 1 1;
 param ae: 1 2 3 4 5 6 7:=
 1 1 1 1 1 1 1 1;
 param ag: 1 2 3 4 5 6 7:=
 1 3 2 2 1 3 3 3
 2 3 1 3 3 3 1 2
 3 1 3 2 3 3 2 2
 4 1 0 1 0 1 0 1
 5 0 0 1 1 1 1 1
 6 0 1 0 1 0 1 0
 7 -2 0 0 1 1 0 0
 8 0 1 1 0 0 0 0;
 param al: 1 2 3 4 5 6 7:=
 1 0 0 1 0 0 1 0;